Version identifier: 22.1.1.0 | 2022-11-28 | 9160aff4d
CPXPARAM_ClockType                               1
CPXPARAM_Read_DataCheck                          1
CPXPARAM_Threads                                 1
CPXPARAM_TimeLimit                               7200
CPXPARAM_MIP_Tolerances_AbsMIPGap                0
CPXPARAM_MIP_Tolerances_MIPGap                   0
CPXPARAM_MIP_Tolerances_Integrality              0
Tried aggregator 4 times.
MIP Presolve eliminated 38860 rows and 5105 columns.
MIP Presolve modified 50913 coefficients.
Aggregator did 25440 substitutions.
Reduced MIP has 180125 rows, 83615 columns, and 505650 nonzeros.
Reduced MIP has 83615 binaries, 0 generals, 0 SOSs, and 0 indicators.
Presolve time = 2.32 sec. (1209.70 ticks)
Probing fixed 534 vars, tightened 0 bounds.
Probing changed sense of 383 constraints.
Probing time = 3.03 sec. (633.49 ticks)
Tried aggregator 2 times.
Detecting symmetries...
MIP Presolve eliminated 7538 rows and 3218 columns.
MIP Presolve modified 164 coefficients.
Aggregator did 40 substitutions.
Reduced MIP has 172547 rows, 80357 columns, and 486238 nonzeros.
Reduced MIP has 80357 binaries, 0 generals, 0 SOSs, and 0 indicators.
Presolve time = 2.40 sec. (1319.28 ticks)
Probing time = 0.11 sec. (19.96 ticks)
Clique table members: 217334.
MIP emphasis: balance optimality and feasibility.
MIP search method: dynamic search.
Parallel mode: none, using 1 thread.
Root relaxation solution time = 318.32 sec. (64633.80 ticks)

        Nodes                                         Cuts/
   Node  Left     Objective  IInf  Best Integer    Best Bound    ItCnt     Gap

      0     0    50099.3333 50866                  50099.3333   137893         
      0     0    49554.8649 52364               Cliques: 10000   233282         
      0     0    47505.8692 50663               Cliques: 10000   464139         
      0     0    46528.2624 50528                 Cuts: 10000   649452         

Clique cuts applied:  25297
Implied bound cuts applied:  21
Zero-half cuts applied:  203

Root node processing (before b&c):
  Real time             = 7200.21 sec. (2591198.25 ticks)
Sequential b&c:
  Real time             =    0.00 sec. (0.00 ticks)
                          ------------
Total (root+branch&cut) = 7200.21 sec. (2591198.25 ticks)
Solution is infeasible.

---------------------
@@@ MIP_time_limit_infeasible
Traceback (most recent call last):
  File "/scratch/scherif/DiverseSAT-journal_sup/DiverseSAT_Supplementary_Experiments/experiment-1/cplex/jobs/../solvers/CPLEX-BIN.py", line 132, in <module>
    print(f">>> Benchmark {os.path.basename(cnf_file)} k {k} OPT {int(prob.solution.get_objective_value())}"
  File "/users/scherif/.local/lib/python3.9/site-packages/cplex/_internal/_subinterfaces.py", line 7211, in get_objective_value
    return CPX_PROC.getobjval(self._env._e, self._cplex._lp)
  File "/users/scherif/.local/lib/python3.9/site-packages/cplex/_internal/_procedural.py", line 2055, in getobjval
    check_status(env, status)
  File "/users/scherif/.local/lib/python3.9/site-packages/cplex/_internal/_procedural.py", line 249, in __call__
    raise CplexSolverError(error_string, env, status)
cplex.exceptions.errors.CplexSolverError: CPLEX Error  1217: No solution exists.
